92 62 33 28 27 29 31 30 26 34 50 32 89 91 80 
65 83 59 87 86 57 99 9 10 13 17 60 
82 52 11 12 15 16 75 97 74 58 77 25 48 
64 23 21 18 19 49 22 20 24 
69 98 88 6 7 8 46 4 55 
95 63 85 76 51 84 56 66 
45 2 5 3 1 70 100 
14 47 73 79 78 53 90 
71 67 94 93 
72 36 39 42 44 41 38 40 35 37 43 68 
61 81 54 96 
